50
18866

125 434
192 324
323 963
302 527
663 595
654 312
150 756
473 571
481 376
279 132
273 370
329 151
215 109
839 831
614 855
861 878
244 294
565 213
753 114
112 798
567 16
264 329
436 846
93 446
25 92
413 5
856 533
247 363
141 808
110 750
698 161
541 249
542 297
886 540
937 725
882 426
481 408
545 11
474 435
852 703
32 835
864 321
281 674
958 769
214 327
207 632
387 504
685 590
77 783
917 2
